29 29
24
3 3   5 26
3 4   20 25
3 5   23 24
3 6   5 20
3 7   20 18
3 8   26 21
3 9   23 15
3 10   26 11
3 11   26 0
3 15   23 0
3 18   20 0
3 20   5 0
4 3   8 26
4 4   12 25
4 5   16 24
4 6   8 20
4 7   12 18
4 9   16 15
4 15   16 0
4 18   12 0
4 20   8 0
5 4   0 25
5 8   0 17
5 17   0 0